<?xml version = "1.0" encoding="UTF-8" standalone="yes"?>
<CPLEXSolution version="1.2">
 <header
   problemName=""
   solutionName="p0"
   solutionIndex="-1"
   objectiveValue="56"
   solutionTypeValue="3"
   solutionTypeString="primal"
   solutionStatusValue="127"
   solutionStatusString="integer feasible solution"
   solutionMethodString="mip"
   primalFeasible="0"
   dualFeasible="0"
   writeLevel="1"/>
 <quality
   epInt="1.0000000000000001e-05"
   epRHS="9.9999999999999995e-07"
   maxIntInfeas="0"
   maxPrimalInfeas="1.4210854715202004e-14"
   maxX="56"
   maxSlack="60.000000000000014"/>
 <linearConstraints>
  <constraint index="0" slack="1.4210854715202004e-14"/>
  <constraint index="1" slack="-6"/>
  <constraint index="2" slack="7.1054273576010019e-15"/>
  <constraint index="3" slack="1.4210854715202004e-14"/>
  <constraint index="4" slack="7.1054273576010019e-15"/>
  <constraint index="5" slack="7.1054273576010019e-15"/>
  <constraint index="6" slack="0"/>
  <constraint index="7" slack="1.7763568394002505e-15"/>
  <constraint index="8" slack="1.4210854715202004e-14"/>
  <constraint index="9" slack="-60.000000000000014"/>
  <constraint index="10" slack="-24.999999999999957"/>
  <constraint index="11" slack="-35.000000000000043"/>
  <constraint index="12" slack="-29.999999999999957"/>
  <constraint index="13" slack="-25.000000000000043"/>
  <constraint index="14" slack="-19.999999999999972"/>
  <constraint index="15" slack="-36.000000000000028"/>
  <constraint index="16" slack="-24.999999999999972"/>
  <constraint index="17" slack="-26.000000000000028"/>
  <constraint index="18" slack="0"/>
  <constraint index="19" slack="-51"/>
  <constraint index="20" slack="-5.9999999999999645"/>
  <constraint index="21" slack="-49.000000000000036"/>
  <constraint index="22" slack="-13.999999999999957"/>
  <constraint index="23" slack="-41.000000000000043"/>
  <constraint index="24" slack="-24.999999999999943"/>
  <constraint index="25" slack="-32.000000000000057"/>
  <constraint index="26" slack="7.1054273576010019e-15"/>
  <constraint index="27" slack="-50.000000000000007"/>
  <constraint index="28" slack="-10.999999999999979"/>
  <constraint index="29" slack="-41.000000000000021"/>
  <constraint index="30" slack="-2.9999999999999876"/>
  <constraint index="31" slack="-49.000000000000014"/>
  <constraint index="32" slack="1.4210854715202004e-14"/>
  <constraint index="33" slack="-54.000000000000014"/>
  <constraint index="34" slack="-30.99999999999995"/>
  <constraint index="35" slack="-29.00000000000005"/>
  <constraint index="36" slack="-49.999999999999943"/>
  <constraint index="37" slack="-10.000000000000057"/>
  <constraint index="38" slack="-20.999999999999964"/>
  <constraint index="39" slack="-31.000000000000036"/>
  <constraint index="40" slack="-39.999999999999957"/>
  <constraint index="41" slack="-12.000000000000043"/>
  <constraint index="42" slack="-14.999999999999993"/>
  <constraint index="43" slack="-43.000000000000007"/>
  <constraint index="44" slack="-23.999999999999957"/>
  <constraint index="45" slack="-23.999999999999972"/>
  <constraint index="46" slack="-4"/>
  <constraint index="47" slack="-4"/>
  <constraint index="48" slack="-22.999999999999943"/>
  <constraint index="49" slack="-16.999999999999979"/>
  <constraint index="50" slack="-16.999999999999986"/>
  <constraint index="51" slack="-13.999999999999998"/>
  <constraint index="52" slack="-35.999999999999943"/>
  <constraint index="53" slack="-35.999999999999957"/>
  <constraint index="54" slack="-14.999999999999993"/>
  <constraint index="55" slack="0"/>
  <constraint index="56" slack="-38.999999999999972"/>
  <constraint index="57" slack="-30.999999999999957"/>
  <constraint index="58" slack="-14"/>
  <constraint index="59" slack="-38.999999999999957"/>
  <constraint index="60" slack="-14"/>
  <constraint index="61" slack="-33.999999999999972"/>
  <constraint index="62" slack="-4"/>
  <constraint index="63" slack="-29.999999999999957"/>
  <constraint index="64" slack="-4"/>
  <constraint index="65" slack="-24.999999999999972"/>
  <constraint index="66" slack="-4"/>
  <constraint index="67" slack="0"/>
  <constraint index="68" slack="-30.999999999999979"/>
  <constraint index="69" slack="-36.999999999999943"/>
  <constraint index="70" slack="-22.999999999999986"/>
  <constraint index="71" slack="-27.999999999999943"/>
  <constraint index="72" slack="-22.999999999999986"/>
  <constraint index="73" slack="-13.999999999999979"/>
  <constraint index="74" slack="-13.999999999999998"/>
  <constraint index="75" slack="-24.999999999999943"/>
  <constraint index="76" slack="-13.999999999999998"/>
  <constraint index="77" slack="-10.999999999999979"/>
  <constraint index="78" slack="-13.999999999999998"/>
  <constraint index="79" slack="-2.9999999999999858"/>
  <constraint index="80" slack="-43.999999999999957"/>
  <constraint index="81" slack="-30.999999999999943"/>
  <constraint index="82" slack="-18.999999999999993"/>
  <constraint index="83" slack="-44.999999999999943"/>
  <constraint index="84" slack="-18.999999999999993"/>
  <constraint index="85" slack="-34.999999999999957"/>
  <constraint index="86" slack="0"/>
  <constraint index="87" slack="-49.999999999999943"/>
  <constraint index="88" slack="0"/>
  <constraint index="89" slack="-39.999999999999957"/>
  <constraint index="90" slack="0"/>
  <constraint index="91" slack="-14.999999999999993"/>
  <constraint index="92" slack="-11.000000000000043"/>
  <constraint index="93" slack="-6.0000000000000284"/>
  <constraint index="94" slack="-11.000000000000043"/>
  <constraint index="95" slack="-31"/>
  <constraint index="96" slack="-11.000000000000043"/>
  <constraint index="97" slack="-36"/>
  <constraint index="98" slack="-12.000000000000028"/>
  <constraint index="99" slack="-22"/>
  <constraint index="100" slack="-12.000000000000028"/>
  <constraint index="101" slack="-27"/>
  <constraint index="102" slack="-37"/>
  <constraint index="103" slack="-25"/>
  <constraint index="104" slack="-8.0000000000000568"/>
  <constraint index="105" slack="-12.000000000000021"/>
  <constraint index="106" slack="-8.0000000000000568"/>
  <constraint index="107" slack="-20.000000000000014"/>
  <constraint index="108" slack="-8.0000000000000568"/>
  <constraint index="109" slack="-31"/>
  <constraint index="110" slack="-17.000000000000021"/>
  <constraint index="111" slack="-2.0000000000000142"/>
  <constraint index="112" slack="-17.000000000000021"/>
  <constraint index="113" slack="-13"/>
  <constraint index="114" slack="-25.000000000000014"/>
  <constraint index="115" slack="-28"/>
  <constraint index="116" slack="-5.6843418860808015e-14"/>
  <constraint index="117" slack="-4.2632564145606011e-14"/>
  <constraint index="118" slack="-5.6843418860808015e-14"/>
  <constraint index="119" slack="-31.000000000000007"/>
  <constraint index="120" slack="-5.6843418860808015e-14"/>
  <constraint index="121" slack="-50"/>
  <constraint index="122" slack="-2.0000000000000426"/>
  <constraint index="123" slack="-23.000000000000007"/>
  <constraint index="124" slack="-2.0000000000000426"/>
  <constraint index="125" slack="-42"/>
  <constraint index="126" slack="-33.000000000000007"/>
  <constraint index="127" slack="-40"/>
  <constraint index="128" slack="-6.0000000000000426"/>
  <constraint index="129" slack="-2.0000000000000284"/>
  <constraint index="130" slack="-25"/>
  <constraint index="131" slack="-36"/>
  <constraint index="132" slack="-6.0000000000000568"/>
  <constraint index="133" slack="-2.0000000000000213"/>
  <constraint index="134" slack="-25.000000000000014"/>
  <constraint index="135" slack="-36"/>
  <constraint index="136" slack="-5.6843418860808015e-14"/>
  <constraint index="137" slack="-2.0000000000000426"/>
  <constraint index="138" slack="-25.000000000000007"/>
  <constraint index="139" slack="-36"/>
 </linearConstraints>
 <variables>
  <variable name="x_0_0" index="0" value="43.999999999999957"/>
  <variable name="x_0_1" index="1" value="38.999999999999972"/>
  <variable name="x_0_2" index="2" value="14"/>
  <variable name="x_0_3" index="3" value="4"/>
  <variable name="x_1_0" index="4" value="44.999999999999943"/>
  <variable name="x_1_1" index="5" value="30.999999999999979"/>
  <variable name="x_1_2" index="6" value="22.999999999999986"/>
  <variable name="x_1_3" index="7" value="13.999999999999998"/>
  <variable name="x_2_0" index="8" value="53.999999999999943"/>
  <variable name="x_2_1" index="9" value="43.999999999999957"/>
  <variable name="x_2_2" index="10" value="18.999999999999993"/>
  <variable name="x_2_3" index="11" value="0"/>
  <variable name="z_0_0_1" index="12" value="0"/>
  <variable name="z_0_0_2" index="13" value="0"/>
  <variable name="z_0_0_3" index="14" value="0"/>
  <variable name="z_0_1_2" index="15" value="0"/>
  <variable name="z_0_1_3" index="16" value="0"/>
  <variable name="z_0_2_3" index="17" value="0"/>
  <variable name="z_1_0_1" index="18" value="0"/>
  <variable name="z_1_0_2" index="19" value="0"/>
  <variable name="z_1_0_3" index="20" value="0"/>
  <variable name="z_1_1_2" index="21" value="0"/>
  <variable name="z_1_1_3" index="22" value="0"/>
  <variable name="z_1_2_3" index="23" value="0"/>
  <variable name="z_2_0_1" index="24" value="0"/>
  <variable name="z_2_0_2" index="25" value="0"/>
  <variable name="z_2_0_3" index="26" value="0"/>
  <variable name="z_2_1_2" index="27" value="0"/>
  <variable name="z_2_1_3" index="28" value="0"/>
  <variable name="z_2_2_3" index="29" value="0"/>
  <variable name="cmax" index="30" value="56"/>
 </variables>
</CPLEXSolution>
